
Gurobi 9.5.0 (linux64) logging started Tue Nov  7 13:14:12 2023

Set parameter LogFile to value "/lustre1/scratch/348/vsc34888/JointResearch/05.Models/06.Benchmarking/D.Representative_days_based_on_RES_and_Demand/9n_ByStages_nc50/openStarNet_9n_ByStages_nc50.log"
Set parameter Method to value 2
Set parameter MIPFocus to value 1
Set parameter Presolve to value 2
Set parameter RINS to value 100
Set parameter MIPGap to value 0.01
Set parameter Threads to value 36
Set parameter TimeLimit to value 604800
Set parameter IterationLimit to value 760000000
Gurobi Optimizer version 9.5.0 build v9.5.0rc5 (linux64)
Thread count: 36 physical cores, 36 logical processors, using up to 36 threads
Optimize a model with 13787 rows, 7196 columns and 41174 nonzeros
Model fingerprint: 0x87656b8b
Variable types: 7160 continuous, 36 integer (36 binary)
Coefficient statistics:
  Matrix range     [8e-04, 2e+03]
  Objective range  [1e+00, 1e+00]
  Bounds range     [4e-04, 2e+00]
  RHS range        [4e-04, 1e+00]
Presolve removed 4937 rows and 2382 columns
Presolve time: 0.06s
Presolved: 8850 rows, 4814 columns, 31328 nonzeros
Variable types: 4778 continuous, 36 integer (36 binary)
Found heuristic solution: objective 626.7834723
Root relaxation presolved: 8850 rows, 4814 columns, 31328 nonzeros

Root barrier log...

Ordering time: 0.00s

Barrier statistics:
 Dense cols : 36
 AA' NZ     : 1.191e+05
 Factor NZ  : 2.388e+05 (roughly 8 MB of memory)
 Factor Ops : 9.771e+06 (less than 1 second per iteration)
 Threads    : 36

                  Objective                Residual
Iter       Primal          Dual         Primal    Dual     Compl     Time
   0   3.68300348e+05 -2.14868837e+07  6.30e+00 1.59e+02  3.72e+03     0s
   1   5.14996828e+04 -6.15283696e+06  7.03e-01 1.21e-09  4.86e+02     0s
   2   1.15761122e+04 -8.58064285e+05  7.48e-03 4.09e-10  5.02e+01     0s
   3   3.29445216e+03 -1.60794487e+04  4.82e-13 5.10e-12  1.11e+00     0s
   4   7.99184328e+02 -3.96536811e+03  3.77e-13 1.21e-12  2.73e-01     0s
   5   4.82889564e+02 -1.13445994e+03  3.26e-13 4.55e-13  9.28e-02     0s
   6   3.07403662e+02 -5.26648055e+02  1.79e-13 4.55e-13  4.79e-02     0s
   7   1.74151276e+02 -1.44405789e+02  2.56e-13 9.09e-13  1.83e-02     0s
   8   1.15006311e+02  1.57022125e+01  5.84e-13 4.55e-13  5.70e-03     0s
   9   9.04136362e+01  7.33636418e+01  3.21e-12 9.09e-13  9.78e-04     0s
  10   8.55124201e+01  8.16466293e+01  2.13e-12 9.09e-13  2.22e-04     0s
  11   8.45806757e+01  8.34139722e+01  4.58e-12 9.09e-13  6.69e-05     0s
  12   8.44641726e+01  8.43867757e+01  2.44e-12 9.09e-13  4.44e-06     0s
  13   8.44166715e+01  8.44165930e+01  9.48e-12 9.09e-13  4.50e-09     0s
  14   8.44166496e+01  8.44166496e+01  3.18e-11 9.09e-13  7.15e-15     0s

Barrier solved model in 14 iterations and 0.29 seconds (0.20 work units)
Optimal objective 8.44166496e+01


Root relaxation: objective 8.441665e+01, 372 iterations, 0.21 seconds (0.08 work units)

    Nodes    |    Current Node    |     Objective Bounds      |     Work
 Expl Unexpl |  Obj  Depth IntInf | Incumbent    BestBd   Gap | It/Node Time

     0     0   84.41665    0    6  626.78347   84.41665  86.5%     -    0s
H    0     0                     542.8159414   84.41665  84.4%     -    0s
H    0     0                      94.6981758   93.50895  1.26%     -    0s
     0     0   93.50895    0    1   94.69818   93.50895  1.26%     -    0s
H    0     0                      94.6981519   93.50895  1.26%     -    0s
     0     0   94.69815    0    1   94.69815   94.69815  0.00%     -    0s

Cutting planes:
  Gomory: 1
  Implied bound: 1
  MIR: 70
  Relax-and-lift: 9

Explored 1 nodes (626 simplex iterations) in 0.50 seconds (0.31 work units)
Thread count was 36 (of 36 available processors)

Solution count 4: 94.6982 94.6982 542.816 626.783 

Optimal solution found (tolerance 1.00e-02)
Best objective 9.469815193572e+01, best bound 9.469815193572e+01, gap 0.0000%

Gurobi 9.5.0 (linux64) logging started Tue Nov  7 13:14:14 2023

Set parameter LogFile to value "/lustre1/scratch/348/vsc34888/JointResearch/05.Models/06.Benchmarking/D.Representative_days_based_on_RES_and_Demand/9n_ByStages_nc50/openStarNet_9n_ByStages_nc50.log"
Set parameter Method to value 2
Set parameter MIPFocus to value 1
Set parameter Presolve to value 2
Set parameter RINS to value 100
Set parameter MIPGap to value 0.01
Set parameter Threads to value 36
Set parameter TimeLimit to value 604800
Set parameter IterationLimit to value 760000000
No parameters matching 'relax_integrality' found
Gurobi Optimizer version 9.5.0 build v9.5.0rc5 (linux64)
Thread count: 36 physical cores, 36 logical processors, using up to 36 threads
Optimize a model with 13787 rows, 7160 columns and 33938 nonzeros
Model fingerprint: 0x25963030
Coefficient statistics:
  Matrix range     [8e-04, 2e+03]
  Objective range  [1e+00, 1e+00]
  Bounds range     [4e-04, 2e+00]
  RHS range        [4e-04, 2e+01]
Presolve removed 12037 rows and 4116 columns
Presolve time: 0.01s
Presolved: 1750 rows, 3044 columns, 6594 nonzeros

Ordering time: 0.00s

Barrier statistics:
 AA' NZ     : 4.600e+03
 Factor NZ  : 1.785e+04 (roughly 2 MB of memory)
 Factor Ops : 2.194e+05 (less than 1 second per iteration)
 Threads    : 1

                  Objective                Residual
Iter       Primal          Dual         Primal    Dual     Compl     Time
   0   3.83866981e+05 -1.25717308e+07  3.34e+00 4.55e-13  4.43e+03     0s
   1   5.89681542e+04 -2.44184825e+06  3.53e-01 3.23e-12  5.25e+02     0s
   2   1.36788345e+04 -3.84530803e+05  8.05e-03 2.05e-12  6.06e+01     0s
   3   3.60305659e+03 -1.46412086e+04  4.75e-05 5.22e-12  2.73e+00     0s
   4   7.03142361e+02 -1.98555034e+03  1.33e-07 9.09e-13  4.02e-01     0s
   5   3.58009428e+02 -5.27020344e+02  6.06e-09 9.09e-13  1.32e-01     0s
   6   2.28166911e+02 -1.90910172e+02  2.28e-09 9.09e-13  6.27e-02     0s
   7   1.43086700e+02  3.30785751e+00  6.84e-10 9.09e-13  2.09e-02     0s
   8   1.01378259e+02  7.77960547e+01  7.13e-11 9.09e-13  3.53e-03     0s
   9   9.56519039e+01  9.04316300e+01  8.07e-12 6.82e-13  7.81e-04     0s
  10   9.48897078e+01  9.39658724e+01  7.91e-12 6.82e-13  1.38e-04     0s
  11   9.47333872e+01  9.45597730e+01  1.35e-11 6.82e-13  2.60e-05     0s
  12   9.46995273e+01  9.46958312e+01  1.84e-11 9.09e-13  5.53e-07     0s
  13   9.46981533e+01  9.46981496e+01  1.20e-11 9.09e-13  5.53e-10     0s
  14   9.46981519e+01  9.46981519e+01  1.68e-12 4.55e-13  5.53e-13     0s

Barrier solved model in 14 iterations and 0.03 seconds (0.03 work units)
Optimal objective 9.46981519e+01

Crossover log...

     593 DPushes remaining with DInf 0.0000000e+00                 0s
       0 DPushes remaining with DInf 0.0000000e+00                 0s

      60 PPushes remaining with PInf 0.0000000e+00                 0s
       0 PPushes remaining with PInf 0.0000000e+00                 0s

  Push phase complete: Pinf 0.0000000e+00, Dinf 2.5091040e-13      0s

Iteration    Objective       Primal Inf.    Dual Inf.      Time
     111    9.4698152e+01   0.000000e+00   0.000000e+00      0s

Solved in 111 iterations and 0.05 seconds (0.03 work units)
Optimal objective  9.469815194e+01
